p td 100 38
1 8
1 23
2 22
6 79
10 64
11 63
12 24
13 15
14 99
15 26
15 50
16 71
17 26
18 20
18 24
19 85
20 57
20 91
25 36
30 51
31 54
34 70
34 80
38 49
38 66
38 98
40 51
42 92
46 55
50 85
56 85
58 84
59 61
63 90
66 93
74 81
92 99
93 95
